\ This file has been generated by DOcplex
\ ENCODING=ISO-8859-1
\Problem name: TRP_BigM

Minimize
 obj: thr_0_49_0 + thr_0_49_180 + thr_0_49_360 + thr_1_33_0 + thr_1_33_180
      + thr_1_33_360 + thr_2_13_0 + thr_2_13_180 + thr_2_13_360 + thr_3_39_0
      + thr_3_39_180 + thr_3_39_360 + thr_4_39_0 + thr_4_39_180 + thr_4_39_360
Subject To
 c1: - t_0_0 + t_0_1 >= 0
 c2: - t_0_1 + t_0_2 >= 640
 c3: - t_0_2 + t_0_3 >= 0
 c4: - t_0_3 + t_0_4 >= 164
 c5: - t_0_4 + t_0_5 >= 0
 c6: - t_0_5 + t_0_6 >= 74
 c7: - t_0_6 + t_0_7 >= 0
 c8: - t_0_7 + t_0_8 >= 43
 c9: - t_0_8 + t_0_9 >= 0
 c10: - t_0_9 + t_0_10 >= 204
 c11: - t_0_10 + t_0_11 >= 0
 c12: - t_0_11 + t_0_12 >= 56
 c13: - t_0_12 + t_0_13 >= 0
 c14: - t_0_13 + t_0_14 >= 169
 c15: - t_0_14 + t_0_15 >= 0
 c16: - t_0_15 + t_0_16 >= 217
 c17: - t_0_16 + t_0_17 >= 0
 c18: - t_0_17 + t_0_18 >= 190
 c19: - t_0_18 + t_0_19 >= 840
 c20: - t_0_19 + t_0_20 >= 137
 c21: - t_0_20 + t_0_21 >= 0
 c22: - t_0_21 + t_0_22 >= 105
 c23: - t_0_22 + t_0_23 >= 0
 c24: - t_0_23 + t_0_24 >= 217
 c25: - t_0_24 + t_0_25 >= 0
 c26: - t_0_25 + t_0_26 >= 108
 c27: - t_0_26 + t_0_27 >= 0
 c28: - t_0_27 + t_0_28 >= 162
 c29: - t_0_28 + t_0_29 >= 0
 c30: - t_0_29 + t_0_30 >= 425
 c31: - t_0_30 + t_0_31 >= 0
 c32: - t_0_31 + t_0_32 >= 300
 c33: - t_0_32 + t_0_33 >= 0
 c34: - t_0_33 + t_0_34 >= 346
 c35: - t_0_34 + t_0_35 >= 240
 c36: - t_0_35 + t_0_36 >= 463
 c37: - t_0_36 + t_0_37 >= 0
 c38: - t_0_37 + t_0_38 >= 241
 c39: - t_0_38 + t_0_39 >= 0
 c40: - t_0_39 + t_0_40 >= 496
 c41: - t_0_40 + t_0_41 >= 6360
 c42: - t_0_41 + t_0_42 >= 390
 c43: - t_0_42 + t_0_43 >= 0
 c44: - t_0_43 + t_0_44 >= 280
 c45: - t_0_44 + t_0_45 >= 0
 c46: - t_0_45 + t_0_46 >= 530
 c47: - t_0_46 + t_0_47 >= 300
 c48: - t_0_47 + t_0_48 >= 464
 c49: - t_0_48 + t_0_49 >= 0
 c50: - t_0_49 + t_0_50 >= 556
 c51: - t_1_0 + t_1_1 >= 0
 c52: - t_1_1 + t_1_2 >= 27
 c53: - t_1_2 + t_1_3 >= 30
 c54: - t_1_3 + t_1_4 >= 119
 c55: - t_1_4 + t_1_5 >= 0
 c56: - t_1_5 + t_1_6 >= 45
 c57: - t_1_6 + t_1_7 >= 0
 c58: - t_1_7 + t_1_8 >= 136
 c59: - t_1_8 + t_1_9 >= 60
 c60: - t_1_9 + t_1_10 >= 210
 c61: - t_1_10 + t_1_11 >= 30
 c62: - t_1_11 + t_1_12 >= 150
 c63: - t_1_12 + t_1_13 >= 30
 c64: - t_1_13 + t_1_14 >= 150
 c65: - t_1_14 + t_1_15 >= 30
 c66: - t_1_15 + t_1_16 >= 90
 c67: - t_1_16 + t_1_17 >= 30
 c68: - t_1_17 + t_1_18 >= 178
 c69: - t_1_18 + t_1_19 >= 0
 c70: - t_1_19 + t_1_20 >= 80
 c71: - t_1_20 + t_1_21 >= 0
 c72: - t_1_21 + t_1_22 >= 122
 c73: - t_1_22 + t_1_23 >= 40
 c74: - t_1_23 + t_1_24 >= 480
 c75: - t_1_24 + t_1_25 >= 180
 c76: - t_1_25 + t_1_26 >= 240
 c77: - t_1_26 + t_1_27 >= 0
 c78: - t_1_27 + t_1_28 >= 210
 c79: - t_1_28 + t_1_29 >= 30
 c80: - t_1_29 + t_1_30 >= 300
 c81: - t_1_30 + t_1_31 >= 0
 c82: - t_1_31 + t_1_32 >= 180
 c83: - t_1_32 + t_1_33 >= 0
 c84: - t_1_33 + t_1_34 >= 300
 c85: - t_2_0 + t_2_1 >= 163
 c86: - t_2_1 + t_2_2 >= 90
 c87: - t_2_2 + t_2_3 >= 0
 c88: - t_2_3 + t_2_4 >= 30
 c89: - t_2_4 + t_2_5 >= 0
 c90: - t_2_5 + t_2_6 >= 150
 c91: - t_2_6 + t_2_7 >= 30
 c92: - t_2_7 + t_2_8 >= 90
 c93: - t_2_8 + t_2_9 >= 30
 c94: - t_2_9 + t_2_10 >= 90
 c95: - t_2_10 + t_2_11 >= 30
 c96: - t_2_11 + t_2_12 >= 110
 c97: - t_2_12 + t_2_13 >= 0
 c98: - t_2_13 + t_2_14 >= 250
 c99: - t_3_0 + t_3_1 >= 60
 c100: - t_3_1 + t_3_2 >= 152
 c101: - t_3_2 + t_3_3 >= 0
 c102: - t_3_3 + t_3_4 >= 118
 c103: - t_3_4 + t_3_5 >= 30
 c104: - t_3_5 + t_3_6 >= 90
 c105: - t_3_6 + t_3_7 >= 30
 c106: - t_3_7 + t_3_8 >= 90
 c107: - t_3_8 + t_3_9 >= 30
 c108: - t_3_9 + t_3_10 >= 119
 c109: - t_3_10 + t_3_11 >= 0
 c110: - t_3_11 + t_3_12 >= 45
 c111: - t_3_12 + t_3_13 >= 0
 c112: - t_3_13 + t_3_14 >= 136
 c113: - t_3_14 + t_3_15 >= 60
 c114: - t_3_15 + t_3_16 >= 210
 c115: - t_3_16 + t_3_17 >= 30
 c116: - t_3_17 + t_3_18 >= 150
 c117: - t_3_18 + t_3_19 >= 30
 c118: - t_3_19 + t_3_20 >= 150
 c119: - t_3_20 + t_3_21 >= 30
 c120: - t_3_21 + t_3_22 >= 90
 c121: - t_3_22 + t_3_23 >= 30
 c122: - t_3_23 + t_3_24 >= 178
 c123: - t_3_24 + t_3_25 >= 0
 c124: - t_3_25 + t_3_26 >= 80
 c125: - t_3_26 + t_3_27 >= 0
 c126: - t_3_27 + t_3_28 >= 122
 c127: - t_3_28 + t_3_29 >= 40
 c128: - t_3_29 + t_3_30 >= 480
 c129: - t_3_30 + t_3_31 >= 180
 c130: - t_3_31 + t_3_32 >= 240
 c131: - t_3_32 + t_3_33 >= 0
 c132: - t_3_33 + t_3_34 >= 210
 c133: - t_3_34 + t_3_35 >= 30
 c134: - t_3_35 + t_3_36 >= 300
 c135: - t_3_36 + t_3_37 >= 0
 c136: - t_3_37 + t_3_38 >= 180
 c137: - t_3_38 + t_3_39 >= 0
 c138: - t_3_39 + t_3_40 >= 300
 c139: - t_4_0 + t_4_1 >= 0
 c140: - t_4_1 + t_4_2 >= 300
 c141: - t_4_2 + t_4_3 >= 0
 c142: - t_4_3 + t_4_4 >= 180
 c143: - t_4_4 + t_4_5 >= 0
 c144: - t_4_5 + t_4_6 >= 270
 c145: - t_4_6 + t_4_7 >= 30
 c146: - t_4_7 + t_4_8 >= 240
 c147: - t_4_8 + t_4_9 >= 0
 c148: - t_4_9 + t_4_10 >= 240
 c149: - t_4_10 + t_4_11 >= 0
 c150: - t_4_11 + t_4_12 >= 320
 c151: - t_4_12 + t_4_13 >= 40
 c152: - t_4_13 + t_4_14 >= 107
 c153: - t_4_14 + t_4_15 >= 0
 c154: - t_4_15 + t_4_16 >= 72
 c155: - t_4_16 + t_4_17 >= 0
 c156: - t_4_17 + t_4_18 >= 211
 c157: - t_4_18 + t_4_19 >= 30
 c158: - t_4_19 + t_4_20 >= 150
 c159: - t_4_20 + t_4_21 >= 30
 c160: - t_4_21 + t_4_22 >= 90
 c161: - t_4_22 + t_4_23 >= 30
 c162: - t_4_23 + t_4_24 >= 150
 c163: - t_4_24 + t_4_25 >= 30
 c164: - t_4_25 + t_4_26 >= 300
 c165: - t_4_26 + t_4_27 >= 180
 c166: - t_4_27 + t_4_28 >= 90
 c167: - t_4_28 + t_4_29 >= 0
 c168: - t_4_29 + t_4_30 >= 30
 c169: - t_4_30 + t_4_31 >= 0
 c170: - t_4_31 + t_4_32 >= 150
 c171: - t_4_32 + t_4_33 >= 30
 c172: - t_4_33 + t_4_34 >= 90
 c173: - t_4_34 + t_4_35 >= 30
 c174: - t_4_35 + t_4_36 >= 90
 c175: - t_4_36 + t_4_37 >= 30
 c176: - t_4_37 + t_4_38 >= 110
 c177: - t_4_38 + t_4_39 >= 0
 c178: - t_4_39 + t_4_40 >= 250
 c179: t_0_8 - t_1_1 + 43200 y_0_7_1_1 <= 43200
 c180: t_1_2 - t_0_7 - 43200 y_0_7_1_1 <= 0
 c181: t_0_10 - t_1_3 + 43200 y_0_9_1_3 <= 43200
 c182: t_1_4 - t_0_9 - 43200 y_0_9_1_3 <= 0
 c183: t_0_12 - t_1_5 + 43200 y_0_11_1_5 <= 43200
 c184: t_1_6 - t_0_11 - 43200 y_0_11_1_5 <= 0
 c185: t_0_14 - t_1_7 + 43200 y_0_13_1_7 <= 43200
 c186: t_1_8 - t_0_13 - 43200 y_0_13_1_7 <= 0
 c187: t_0_16 - t_1_9 + 43200 y_0_15_1_9 <= 43200
 c188: t_1_10 - t_0_15 - 43200 y_0_15_1_9 <= 0
 c189: t_0_18 - t_1_11 + 43200 y_0_17_1_11 <= 43200
 c190: t_1_12 - t_0_17 - 43200 y_0_17_1_11 <= 0
 c191: t_0_20 - t_1_13 + 43200 y_0_19_1_13 <= 43200
 c192: t_1_14 - t_0_19 - 43200 y_0_19_1_13 <= 0
 c193: t_0_22 - t_1_15 + 43200 y_0_21_1_15 <= 43200
 c194: t_1_16 - t_0_21 - 43200 y_0_21_1_15 <= 0
 c195: t_0_24 - t_1_17 + 43200 y_0_23_1_17 <= 43200
 c196: t_1_18 - t_0_23 - 43200 y_0_23_1_17 <= 0
 c197: t_0_26 - t_1_19 + 43200 y_0_25_1_19 <= 43200
 c198: t_1_20 - t_0_25 - 43200 y_0_25_1_19 <= 0
 c199: t_0_28 - t_1_21 + 43200 y_0_27_1_21 <= 43200
 c200: t_1_22 - t_0_27 - 43200 y_0_27_1_21 <= 0
 c201: t_0_30 - t_1_23 + 43200 y_0_29_1_23 <= 43200
 c202: t_1_24 - t_0_29 - 43200 y_0_29_1_23 <= 0
 c203: t_0_32 - t_1_25 + 43200 y_0_31_1_25 <= 43200
 c204: t_1_26 - t_0_31 - 43200 y_0_31_1_25 <= 0
 c205: t_0_34 - t_1_27 + 43200 y_0_33_1_27 <= 43200
 c206: t_1_28 - t_0_33 - 43200 y_0_33_1_27 <= 0
 c207: t_0_36 - t_1_29 + 43200 y_0_35_1_29 <= 43200
 c208: t_1_30 - t_0_35 - 43200 y_0_35_1_29 <= 0
 c209: t_0_38 - t_1_31 + 43200 y_0_37_1_31 <= 43200
 c210: t_1_32 - t_0_37 - 43200 y_0_37_1_31 <= 0
 c211: t_0_40 - t_1_33 + 43200 y_0_39_1_33 <= 43200
 c212: t_1_34 - t_0_39 - 43200 y_0_39_1_33 <= 0
 c213: t_0_2 - t_2_13 + 43200 y_0_1_2_13 <= 43200
 c214: t_2_14 - t_0_1 - 43200 y_0_1_2_13 <= 0
 c215: t_0_4 - t_2_11 + 43200 y_0_3_2_11 <= 43200
 c216: t_2_12 - t_0_3 - 43200 y_0_3_2_11 <= 0
 c217: t_0_6 - t_2_9 + 43200 y_0_5_2_9 <= 43200
 c218: t_2_10 - t_0_5 - 43200 y_0_5_2_9 <= 0
 c219: t_0_8 - t_2_7 + 43200 y_0_7_2_7 <= 43200
 c220: t_2_8 - t_0_7 - 43200 y_0_7_2_7 <= 0
 c221: t_0_10 - t_2_5 + 43200 y_0_9_2_5 <= 43200
 c222: t_2_6 - t_0_9 - 43200 y_0_9_2_5 <= 0
 c223: t_0_12 - t_2_3 + 43200 y_0_11_2_3 <= 43200
 c224: t_2_4 - t_0_11 - 43200 y_0_11_2_3 <= 0
 c225: t_0_14 - t_2_1 + 43200 y_0_13_2_1 <= 43200
 c226: t_2_2 - t_0_13 - 43200 y_0_13_2_1 <= 0
 c227: t_0_2 - t_3_1 + 43200 y_0_1_3_1 <= 43200
 c228: t_3_2 - t_0_1 - 43200 y_0_1_3_1 <= 0
 c229: t_0_4 - t_3_3 + 43200 y_0_3_3_3 <= 43200
 c230: t_3_4 - t_0_3 - 43200 y_0_3_3_3 <= 0
 c231: t_0_6 - t_3_5 + 43200 y_0_5_3_5 <= 43200
 c232: t_3_6 - t_0_5 - 43200 y_0_5_3_5 <= 0
 c233: t_0_8 - t_3_7 + 43200 y_0_7_3_7 <= 43200
 c234: t_3_8 - t_0_7 - 43200 y_0_7_3_7 <= 0
 c235: t_0_10 - t_3_9 + 43200 y_0_9_3_9 <= 43200
 c236: t_3_10 - t_0_9 - 43200 y_0_9_3_9 <= 0
 c237: t_0_12 - t_3_11 + 43200 y_0_11_3_11 <= 43200
 c238: t_3_12 - t_0_11 - 43200 y_0_11_3_11 <= 0
 c239: t_0_14 - t_3_13 + 43200 y_0_13_3_13 <= 43200
 c240: t_3_14 - t_0_13 - 43200 y_0_13_3_13 <= 0
 c241: t_0_16 - t_3_15 + 43200 y_0_15_3_15 <= 43200
 c242: t_3_16 - t_0_15 - 43200 y_0_15_3_15 <= 0
 c243: t_0_18 - t_3_17 + 43200 y_0_17_3_17 <= 43200
 c244: t_3_18 - t_0_17 - 43200 y_0_17_3_17 <= 0
 c245: t_0_20 - t_3_19 + 43200 y_0_19_3_19 <= 43200
 c246: t_3_20 - t_0_19 - 43200 y_0_19_3_19 <= 0
 c247: t_0_22 - t_3_21 + 43200 y_0_21_3_21 <= 43200
 c248: t_3_22 - t_0_21 - 43200 y_0_21_3_21 <= 0
 c249: t_0_24 - t_3_23 + 43200 y_0_23_3_23 <= 43200
 c250: t_3_24 - t_0_23 - 43200 y_0_23_3_23 <= 0
 c251: t_0_26 - t_3_25 + 43200 y_0_25_3_25 <= 43200
 c252: t_3_26 - t_0_25 - 43200 y_0_25_3_25 <= 0
 c253: t_0_28 - t_3_27 + 43200 y_0_27_3_27 <= 43200
 c254: t_3_28 - t_0_27 - 43200 y_0_27_3_27 <= 0
 c255: t_0_30 - t_3_29 + 43200 y_0_29_3_29 <= 43200
 c256: t_3_30 - t_0_29 - 43200 y_0_29_3_29 <= 0
 c257: t_0_32 - t_3_31 + 43200 y_0_31_3_31 <= 43200
 c258: t_3_32 - t_0_31 - 43200 y_0_31_3_31 <= 0
 c259: t_0_34 - t_3_33 + 43200 y_0_33_3_33 <= 43200
 c260: t_3_34 - t_0_33 - 43200 y_0_33_3_33 <= 0
 c261: t_0_36 - t_3_35 + 43200 y_0_35_3_35 <= 43200
 c262: t_3_36 - t_0_35 - 43200 y_0_35_3_35 <= 0
 c263: t_0_38 - t_3_37 + 43200 y_0_37_3_37 <= 43200
 c264: t_3_38 - t_0_37 - 43200 y_0_37_3_37 <= 0
 c265: t_0_40 - t_3_39 + 43200 y_0_39_3_39 <= 43200
 c266: t_3_40 - t_0_39 - 43200 y_0_39_3_39 <= 0
 c267: t_0_2 - t_4_39 + 43200 y_0_1_4_39 <= 43200
 c268: t_4_40 - t_0_1 - 43200 y_0_1_4_39 <= 0
 c269: t_0_4 - t_4_37 + 43200 y_0_3_4_37 <= 43200
 c270: t_4_38 - t_0_3 - 43200 y_0_3_4_37 <= 0
 c271: t_0_6 - t_4_35 + 43200 y_0_5_4_35 <= 43200
 c272: t_4_36 - t_0_5 - 43200 y_0_5_4_35 <= 0
 c273: t_0_8 - t_4_33 + 43200 y_0_7_4_33 <= 43200
 c274: t_4_34 - t_0_7 - 43200 y_0_7_4_33 <= 0
 c275: t_0_10 - t_4_31 + 43200 y_0_9_4_31 <= 43200
 c276: t_4_32 - t_0_9 - 43200 y_0_9_4_31 <= 0
 c277: t_0_12 - t_4_29 + 43200 y_0_11_4_29 <= 43200
 c278: t_4_30 - t_0_11 - 43200 y_0_11_4_29 <= 0
 c279: t_0_14 - t_4_27 + 43200 y_0_13_4_27 <= 43200
 c280: t_4_28 - t_0_13 - 43200 y_0_13_4_27 <= 0
 c281: t_0_16 - t_4_25 + 43200 y_0_15_4_25 <= 43200
 c282: t_4_26 - t_0_15 - 43200 y_0_15_4_25 <= 0
 c283: t_0_18 - t_4_23 + 43200 y_0_17_4_23 <= 43200
 c284: t_4_24 - t_0_17 - 43200 y_0_17_4_23 <= 0
 c285: t_0_20 - t_4_21 + 43200 y_0_19_4_21 <= 43200
 c286: t_4_22 - t_0_19 - 43200 y_0_19_4_21 <= 0
 c287: t_0_22 - t_4_19 + 43200 y_0_21_4_19 <= 43200
 c288: t_4_20 - t_0_21 - 43200 y_0_21_4_19 <= 0
 c289: t_0_24 - t_4_17 + 43200 y_0_23_4_17 <= 43200
 c290: t_4_18 - t_0_23 - 43200 y_0_23_4_17 <= 0
 c291: t_0_26 - t_4_15 + 43200 y_0_25_4_15 <= 43200
 c292: t_4_16 - t_0_25 - 43200 y_0_25_4_15 <= 0
 c293: t_0_28 - t_4_13 + 43200 y_0_27_4_13 <= 43200
 c294: t_4_14 - t_0_27 - 43200 y_0_27_4_13 <= 0
 c295: t_0_30 - t_4_11 + 43200 y_0_29_4_11 <= 43200
 c296: t_4_12 - t_0_29 - 43200 y_0_29_4_11 <= 0
 c297: t_0_32 - t_4_9 + 43200 y_0_31_4_9 <= 43200
 c298: t_4_10 - t_0_31 - 43200 y_0_31_4_9 <= 0
 c299: t_0_34 - t_4_7 + 43200 y_0_33_4_7 <= 43200
 c300: t_4_8 - t_0_33 - 43200 y_0_33_4_7 <= 0
 c301: t_0_36 - t_4_5 + 43200 y_0_35_4_5 <= 43200
 c302: t_4_6 - t_0_35 - 43200 y_0_35_4_5 <= 0
 c303: t_0_38 - t_4_3 + 43200 y_0_37_4_3 <= 43200
 c304: t_4_4 - t_0_37 - 43200 y_0_37_4_3 <= 0
 c305: t_0_40 - t_4_1 + 43200 y_0_39_4_1 <= 43200
 c306: t_4_2 - t_0_39 - 43200 y_0_39_4_1 <= 0
 c307: t_1_2 - t_2_7 + 43200 y_1_1_2_7 <= 43200
 c308: t_2_8 - t_1_1 - 43200 y_1_1_2_7 <= 0
 c309: t_1_4 - t_2_5 + 43200 y_1_3_2_5 <= 43200
 c310: t_2_6 - t_1_3 - 43200 y_1_3_2_5 <= 0
 c311: t_1_6 - t_2_3 + 43200 y_1_5_2_3 <= 43200
 c312: t_2_4 - t_1_5 - 43200 y_1_5_2_3 <= 0
 c313: t_1_8 - t_2_1 + 43200 y_1_7_2_1 <= 43200
 c314: t_2_2 - t_1_7 - 43200 y_1_7_2_1 <= 0
 c315: t_1_2 - t_3_7 + 43200 y_1_1_3_7 <= 43200
 c316: t_3_8 - t_1_1 - 43200 y_1_1_3_7 <= 0
 c317: t_1_4 - t_3_9 + 43200 y_1_3_3_9 <= 43200
 c318: t_3_10 - t_1_3 - 43200 y_1_3_3_9 <= 0
 c319: t_1_6 - t_3_11 + 43200 y_1_5_3_11 <= 43200
 c320: t_3_12 - t_1_5 - 43200 y_1_5_3_11 <= 0
 c321: t_1_8 - t_3_13 + 43200 y_1_7_3_13 <= 43200
 c322: t_3_14 - t_1_7 - 43200 y_1_7_3_13 <= 0
 c323: t_1_10 - t_3_15 + 43200 y_1_9_3_15 <= 43200
 c324: t_3_16 - t_1_9 - 43200 y_1_9_3_15 <= 0
 c325: t_1_12 - t_3_17 + 43200 y_1_11_3_17 <= 43200
 c326: t_3_18 - t_1_11 - 43200 y_1_11_3_17 <= 0
 c327: t_1_14 - t_3_19 + 43200 y_1_13_3_19 <= 43200
 c328: t_3_20 - t_1_13 - 43200 y_1_13_3_19 <= 0
 c329: t_1_16 - t_3_21 + 43200 y_1_15_3_21 <= 43200
 c330: t_3_22 - t_1_15 - 43200 y_1_15_3_21 <= 0
 c331: t_1_18 - t_3_23 + 43200 y_1_17_3_23 <= 43200
 c332: t_3_24 - t_1_17 - 43200 y_1_17_3_23 <= 0
 c333: t_1_20 - t_3_25 + 43200 y_1_19_3_25 <= 43200
 c334: t_3_26 - t_1_19 - 43200 y_1_19_3_25 <= 0
 c335: t_1_22 - t_3_27 + 43200 y_1_21_3_27 <= 43200
 c336: t_3_28 - t_1_21 - 43200 y_1_21_3_27 <= 0
 c337: t_1_24 - t_3_29 + 43200 y_1_23_3_29 <= 43200
 c338: t_3_30 - t_1_23 - 43200 y_1_23_3_29 <= 0
 c339: t_1_26 - t_3_31 + 43200 y_1_25_3_31 <= 43200
 c340: t_3_32 - t_1_25 - 43200 y_1_25_3_31 <= 0
 c341: t_1_28 - t_3_33 + 43200 y_1_27_3_33 <= 43200
 c342: t_3_34 - t_1_27 - 43200 y_1_27_3_33 <= 0
 c343: t_1_30 - t_3_35 + 43200 y_1_29_3_35 <= 43200
 c344: t_3_36 - t_1_29 - 43200 y_1_29_3_35 <= 0
 c345: t_1_32 - t_3_37 + 43200 y_1_31_3_37 <= 43200
 c346: t_3_38 - t_1_31 - 43200 y_1_31_3_37 <= 0
 c347: t_1_34 - t_3_39 + 43200 y_1_33_3_39 <= 43200
 c348: t_3_40 - t_1_33 - 43200 y_1_33_3_39 <= 0
 c349: t_1_2 - t_4_33 + 43200 y_1_1_4_33 <= 43200
 c350: t_4_34 - t_1_1 - 43200 y_1_1_4_33 <= 0
 c351: t_1_4 - t_4_31 + 43200 y_1_3_4_31 <= 43200
 c352: t_4_32 - t_1_3 - 43200 y_1_3_4_31 <= 0
 c353: t_1_6 - t_4_29 + 43200 y_1_5_4_29 <= 43200
 c354: t_4_30 - t_1_5 - 43200 y_1_5_4_29 <= 0
 c355: t_1_8 - t_4_27 + 43200 y_1_7_4_27 <= 43200
 c356: t_4_28 - t_1_7 - 43200 y_1_7_4_27 <= 0
 c357: t_1_10 - t_4_25 + 43200 y_1_9_4_25 <= 43200
 c358: t_4_26 - t_1_9 - 43200 y_1_9_4_25 <= 0
 c359: t_1_12 - t_4_23 + 43200 y_1_11_4_23 <= 43200
 c360: t_4_24 - t_1_11 - 43200 y_1_11_4_23 <= 0
 c361: t_1_14 - t_4_21 + 43200 y_1_13_4_21 <= 43200
 c362: t_4_22 - t_1_13 - 43200 y_1_13_4_21 <= 0
 c363: t_1_16 - t_4_19 + 43200 y_1_15_4_19 <= 43200
 c364: t_4_20 - t_1_15 - 43200 y_1_15_4_19 <= 0
 c365: t_1_18 - t_4_17 + 43200 y_1_17_4_17 <= 43200
 c366: t_4_18 - t_1_17 - 43200 y_1_17_4_17 <= 0
 c367: t_1_20 - t_4_15 + 43200 y_1_19_4_15 <= 43200
 c368: t_4_16 - t_1_19 - 43200 y_1_19_4_15 <= 0
 c369: t_1_22 - t_4_13 + 43200 y_1_21_4_13 <= 43200
 c370: t_4_14 - t_1_21 - 43200 y_1_21_4_13 <= 0
 c371: t_1_24 - t_4_11 + 43200 y_1_23_4_11 <= 43200
 c372: t_4_12 - t_1_23 - 43200 y_1_23_4_11 <= 0
 c373: t_1_26 - t_4_9 + 43200 y_1_25_4_9 <= 43200
 c374: t_4_10 - t_1_25 - 43200 y_1_25_4_9 <= 0
 c375: t_1_28 - t_4_7 + 43200 y_1_27_4_7 <= 43200
 c376: t_4_8 - t_1_27 - 43200 y_1_27_4_7 <= 0
 c377: t_1_30 - t_4_5 + 43200 y_1_29_4_5 <= 43200
 c378: t_4_6 - t_1_29 - 43200 y_1_29_4_5 <= 0
 c379: t_1_32 - t_4_3 + 43200 y_1_31_4_3 <= 43200
 c380: t_4_4 - t_1_31 - 43200 y_1_31_4_3 <= 0
 c381: t_1_34 - t_4_1 + 43200 y_1_33_4_1 <= 43200
 c382: t_4_2 - t_1_33 - 43200 y_1_33_4_1 <= 0
 c383: t_2_2 - t_3_13 + 43200 y_2_1_3_13 <= 43200
 c384: t_3_14 - t_2_1 - 43200 y_2_1_3_13 <= 0
 c385: t_2_4 - t_3_11 + 43200 y_2_3_3_11 <= 43200
 c386: t_3_12 - t_2_3 - 43200 y_2_3_3_11 <= 0
 c387: t_2_6 - t_3_9 + 43200 y_2_5_3_9 <= 43200
 c388: t_3_10 - t_2_5 - 43200 y_2_5_3_9 <= 0
 c389: t_2_8 - t_3_7 + 43200 y_2_7_3_7 <= 43200
 c390: t_3_8 - t_2_7 - 43200 y_2_7_3_7 <= 0
 c391: t_2_10 - t_3_5 + 43200 y_2_9_3_5 <= 43200
 c392: t_3_6 - t_2_9 - 43200 y_2_9_3_5 <= 0
 c393: t_2_12 - t_3_3 + 43200 y_2_11_3_3 <= 43200
 c394: t_3_4 - t_2_11 - 43200 y_2_11_3_3 <= 0
 c395: t_2_14 - t_3_1 + 43200 y_2_13_3_1 <= 43200
 c396: t_3_2 - t_2_13 - 43200 y_2_13_3_1 <= 0
 c397: t_2_2 - t_4_27 + 43200 y_2_1_4_27 <= 43200
 c398: t_4_28 - t_2_1 - 43200 y_2_1_4_27 <= 0
 c399: t_2_4 - t_4_29 + 43200 y_2_3_4_29 <= 43200
 c400: t_4_30 - t_2_3 - 43200 y_2_3_4_29 <= 0
 c401: t_2_6 - t_4_31 + 43200 y_2_5_4_31 <= 43200
 c402: t_4_32 - t_2_5 - 43200 y_2_5_4_31 <= 0
 c403: t_2_8 - t_4_33 + 43200 y_2_7_4_33 <= 43200
 c404: t_4_34 - t_2_7 - 43200 y_2_7_4_33 <= 0
 c405: t_2_10 - t_4_35 + 43200 y_2_9_4_35 <= 43200
 c406: t_4_36 - t_2_9 - 43200 y_2_9_4_35 <= 0
 c407: t_2_12 - t_4_37 + 43200 y_2_11_4_37 <= 43200
 c408: t_4_38 - t_2_11 - 43200 y_2_11_4_37 <= 0
 c409: t_2_14 - t_4_39 + 43200 y_2_13_4_39 <= 43200
 c410: t_4_40 - t_2_13 - 43200 y_2_13_4_39 <= 0
 c411: t_3_2 - t_4_39 + 43200 y_3_1_4_39 <= 43200
 c412: t_4_40 - t_3_1 - 43200 y_3_1_4_39 <= 0
 c413: t_3_4 - t_4_37 + 43200 y_3_3_4_37 <= 43200
 c414: t_4_38 - t_3_3 - 43200 y_3_3_4_37 <= 0
 c415: t_3_6 - t_4_35 + 43200 y_3_5_4_35 <= 43200
 c416: t_4_36 - t_3_5 - 43200 y_3_5_4_35 <= 0
 c417: t_3_8 - t_4_33 + 43200 y_3_7_4_33 <= 43200
 c418: t_4_34 - t_3_7 - 43200 y_3_7_4_33 <= 0
 c419: t_3_10 - t_4_31 + 43200 y_3_9_4_31 <= 43200
 c420: t_4_32 - t_3_9 - 43200 y_3_9_4_31 <= 0
 c421: t_3_12 - t_4_29 + 43200 y_3_11_4_29 <= 43200
 c422: t_4_30 - t_3_11 - 43200 y_3_11_4_29 <= 0
 c423: t_3_14 - t_4_27 + 43200 y_3_13_4_27 <= 43200
 c424: t_4_28 - t_3_13 - 43200 y_3_13_4_27 <= 0
 c425: t_3_16 - t_4_25 + 43200 y_3_15_4_25 <= 43200
 c426: t_4_26 - t_3_15 - 43200 y_3_15_4_25 <= 0
 c427: t_3_18 - t_4_23 + 43200 y_3_17_4_23 <= 43200
 c428: t_4_24 - t_3_17 - 43200 y_3_17_4_23 <= 0
 c429: t_3_20 - t_4_21 + 43200 y_3_19_4_21 <= 43200
 c430: t_4_22 - t_3_19 - 43200 y_3_19_4_21 <= 0
 c431: t_3_22 - t_4_19 + 43200 y_3_21_4_19 <= 43200
 c432: t_4_20 - t_3_21 - 43200 y_3_21_4_19 <= 0
 c433: t_3_24 - t_4_17 + 43200 y_3_23_4_17 <= 43200
 c434: t_4_18 - t_3_23 - 43200 y_3_23_4_17 <= 0
 c435: t_3_26 - t_4_15 + 43200 y_3_25_4_15 <= 43200
 c436: t_4_16 - t_3_25 - 43200 y_3_25_4_15 <= 0
 c437: t_3_28 - t_4_13 + 43200 y_3_27_4_13 <= 43200
 c438: t_4_14 - t_3_27 - 43200 y_3_27_4_13 <= 0
 c439: t_3_30 - t_4_11 + 43200 y_3_29_4_11 <= 43200
 c440: t_4_12 - t_3_29 - 43200 y_3_29_4_11 <= 0
 c441: t_3_32 - t_4_9 + 43200 y_3_31_4_9 <= 43200
 c442: t_4_10 - t_3_31 - 43200 y_3_31_4_9 <= 0
 c443: t_3_34 - t_4_7 + 43200 y_3_33_4_7 <= 43200
 c444: t_4_8 - t_3_33 - 43200 y_3_33_4_7 <= 0
 c445: t_3_36 - t_4_5 + 43200 y_3_35_4_5 <= 43200
 c446: t_4_6 - t_3_35 - 43200 y_3_35_4_5 <= 0
 c447: t_3_38 - t_4_3 + 43200 y_3_37_4_3 <= 43200
 c448: t_4_4 - t_3_37 - 43200 y_3_37_4_3 <= 0
 c449: t_3_40 - t_4_1 + 43200 y_3_39_4_1 <= 43200
 c450: t_4_2 - t_3_39 - 43200 y_3_39_4_1 <= 0
 c451: t_0_49 - 43200 thr_0_49_0 <= 14705
 c452: t_0_49 - 43200 thr_0_49_180 <= 14885
 c453: t_0_49 - 43200 thr_0_49_360 <= 15065
 c454: t_1_33 - 43200 thr_1_33_0 <= 3021
 c455: t_1_33 - 43200 thr_1_33_180 <= 3201
 c456: t_1_33 - 43200 thr_1_33_360 <= 3381
 c457: t_2_13 - 43200 thr_2_13_0 <= 851
 c458: t_2_13 - 43200 thr_2_13_180 <= 1031
 c459: t_2_13 - 43200 thr_2_13_360 <= 1211
 c460: t_3_39 - 43200 thr_3_39_0 <= 6621
 c461: t_3_39 - 43200 thr_3_39_180 <= 6801
 c462: t_3_39 - 43200 thr_3_39_360 <= 6981
 c463: t_4_39 - 43200 thr_4_39_0 <= 4451
 c464: t_4_39 - 43200 thr_4_39_180 <= 4631
 c465: t_4_39 - 43200 thr_4_39_360 <= 4811

Bounds
       t_0_0 <= 43200
       t_0_1 <= 43200
 640 <= t_0_2 <= 43200
 1184 <= t_0_3 <= 43200
 1348 <= t_0_4 <= 43200
 1348 <= t_0_5 <= 43200
 1422 <= t_0_6 <= 43200
 1422 <= t_0_7 <= 43200
 1465 <= t_0_8 <= 43200
 1465 <= t_0_9 <= 43200
 1669 <= t_0_10 <= 43200
 1669 <= t_0_11 <= 43200
 1725 <= t_0_12 <= 43200
 1725 <= t_0_13 <= 43200
 1894 <= t_0_14 <= 43200
 1894 <= t_0_15 <= 43200
 2111 <= t_0_16 <= 43200
 2111 <= t_0_17 <= 43200
 2301 <= t_0_18 <= 43200
 3141 <= t_0_19 <= 43200
 3278 <= t_0_20 <= 43200
 3278 <= t_0_21 <= 43200
 3383 <= t_0_22 <= 43200
 3383 <= t_0_23 <= 43200
 3600 <= t_0_24 <= 43200
 3600 <= t_0_25 <= 43200
 3708 <= t_0_26 <= 43200
 3708 <= t_0_27 <= 43200
 3870 <= t_0_28 <= 43200
 3870 <= t_0_29 <= 43200
 4295 <= t_0_30 <= 43200
 4295 <= t_0_31 <= 43200
 4595 <= t_0_32 <= 43200
 4595 <= t_0_33 <= 43200
 4941 <= t_0_34 <= 43200
 5181 <= t_0_35 <= 43200
 5644 <= t_0_36 <= 43200
 5644 <= t_0_37 <= 43200
 5885 <= t_0_38 <= 43200
 5885 <= t_0_39 <= 43200
 6381 <= t_0_40 <= 43200
 12741 <= t_0_41 <= 43200
 13131 <= t_0_42 <= 43200
 13131 <= t_0_43 <= 43200
 13411 <= t_0_44 <= 43200
 13411 <= t_0_45 <= 43200
 13941 <= t_0_46 <= 43200
 14241 <= t_0_47 <= 43200
 14705 <= t_0_48 <= 43200
 14705 <= t_0_49 <= 43200
 15261 <= t_0_50 <= 43200
       t_1_0 <= 43200
       t_1_1 <= 43200
 27 <= t_1_2 <= 43200
 57 <= t_1_3 <= 43200
 176 <= t_1_4 <= 43200
 176 <= t_1_5 <= 43200
 221 <= t_1_6 <= 43200
 221 <= t_1_7 <= 43200
 357 <= t_1_8 <= 43200
 417 <= t_1_9 <= 43200
 627 <= t_1_10 <= 43200
 657 <= t_1_11 <= 43200
 807 <= t_1_12 <= 43200
 837 <= t_1_13 <= 43200
 987 <= t_1_14 <= 43200
 1017 <= t_1_15 <= 43200
 1107 <= t_1_16 <= 43200
 1137 <= t_1_17 <= 43200
 1315 <= t_1_18 <= 43200
 1315 <= t_1_19 <= 43200
 1395 <= t_1_20 <= 43200
 1395 <= t_1_21 <= 43200
 1517 <= t_1_22 <= 43200
 1557 <= t_1_23 <= 43200
 2037 <= t_1_24 <= 43200
 2217 <= t_1_25 <= 43200
 2457 <= t_1_26 <= 43200
 2457 <= t_1_27 <= 43200
 2667 <= t_1_28 <= 43200
 2697 <= t_1_29 <= 43200
 2997 <= t_1_30 <= 43200
 2997 <= t_1_31 <= 43200
 3177 <= t_1_32 <= 43200
 3177 <= t_1_33 <= 43200
 3477 <= t_1_34 <= 43200
 38 <= t_2_0 <= 43200
 201 <= t_2_1 <= 43200
 291 <= t_2_2 <= 43200
 291 <= t_2_3 <= 43200
 321 <= t_2_4 <= 43200
 321 <= t_2_5 <= 43200
 471 <= t_2_6 <= 43200
 501 <= t_2_7 <= 43200
 591 <= t_2_8 <= 43200
 621 <= t_2_9 <= 43200
 711 <= t_2_10 <= 43200
 741 <= t_2_11 <= 43200
 851 <= t_2_12 <= 43200
 851 <= t_2_13 <= 43200
 1101 <= t_2_14 <= 43200
 2901 <= t_3_0 <= 43200
 2961 <= t_3_1 <= 43200
 3113 <= t_3_2 <= 43200
 3113 <= t_3_3 <= 43200
 3231 <= t_3_4 <= 43200
 3261 <= t_3_5 <= 43200
 3351 <= t_3_6 <= 43200
 3381 <= t_3_7 <= 43200
 3471 <= t_3_8 <= 43200
 3501 <= t_3_9 <= 43200
 3620 <= t_3_10 <= 43200
 3620 <= t_3_11 <= 43200
 3665 <= t_3_12 <= 43200
 3665 <= t_3_13 <= 43200
 3801 <= t_3_14 <= 43200
 3861 <= t_3_15 <= 43200
 4071 <= t_3_16 <= 43200
 4101 <= t_3_17 <= 43200
 4251 <= t_3_18 <= 43200
 4281 <= t_3_19 <= 43200
 4431 <= t_3_20 <= 43200
 4461 <= t_3_21 <= 43200
 4551 <= t_3_22 <= 43200
 4581 <= t_3_23 <= 43200
 4759 <= t_3_24 <= 43200
 4759 <= t_3_25 <= 43200
 4839 <= t_3_26 <= 43200
 4839 <= t_3_27 <= 43200
 4961 <= t_3_28 <= 43200
 5001 <= t_3_29 <= 43200
 5481 <= t_3_30 <= 43200
 5661 <= t_3_31 <= 43200
 5901 <= t_3_32 <= 43200
 5901 <= t_3_33 <= 43200
 6111 <= t_3_34 <= 43200
 6141 <= t_3_35 <= 43200
 6441 <= t_3_36 <= 43200
 6441 <= t_3_37 <= 43200
 6621 <= t_3_38 <= 43200
 6621 <= t_3_39 <= 43200
 6921 <= t_3_40 <= 43200
 801 <= t_4_0 <= 43200
 801 <= t_4_1 <= 43200
 1101 <= t_4_2 <= 43200
 1101 <= t_4_3 <= 43200
 1281 <= t_4_4 <= 43200
 1281 <= t_4_5 <= 43200
 1551 <= t_4_6 <= 43200
 1581 <= t_4_7 <= 43200
 1821 <= t_4_8 <= 43200
 1821 <= t_4_9 <= 43200
 2061 <= t_4_10 <= 43200
 2061 <= t_4_11 <= 43200
 2381 <= t_4_12 <= 43200
 2421 <= t_4_13 <= 43200
 2528 <= t_4_14 <= 43200
 2528 <= t_4_15 <= 43200
 2600 <= t_4_16 <= 43200
 2600 <= t_4_17 <= 43200
 2811 <= t_4_18 <= 43200
 2841 <= t_4_19 <= 43200
 2991 <= t_4_20 <= 43200
 3021 <= t_4_21 <= 43200
 3111 <= t_4_22 <= 43200
 3141 <= t_4_23 <= 43200
 3291 <= t_4_24 <= 43200
 3321 <= t_4_25 <= 43200
 3621 <= t_4_26 <= 43200
 3801 <= t_4_27 <= 43200
 3891 <= t_4_28 <= 43200
 3891 <= t_4_29 <= 43200
 3921 <= t_4_30 <= 43200
 3921 <= t_4_31 <= 43200
 4071 <= t_4_32 <= 43200
 4101 <= t_4_33 <= 43200
 4191 <= t_4_34 <= 43200
 4221 <= t_4_35 <= 43200
 4311 <= t_4_36 <= 43200
 4341 <= t_4_37 <= 43200
 4451 <= t_4_38 <= 43200
 4451 <= t_4_39 <= 43200
 4701 <= t_4_40 <= 43200
 0 <= y_0_7_1_1 <= 1
 0 <= y_0_9_1_3 <= 1
 0 <= y_0_11_1_5 <= 1
 0 <= y_0_13_1_7 <= 1
 0 <= y_0_15_1_9 <= 1
 0 <= y_0_17_1_11 <= 1
 0 <= y_0_19_1_13 <= 1
 0 <= y_0_21_1_15 <= 1
 0 <= y_0_23_1_17 <= 1
 0 <= y_0_25_1_19 <= 1
 0 <= y_0_27_1_21 <= 1
 0 <= y_0_29_1_23 <= 1
 0 <= y_0_31_1_25 <= 1
 0 <= y_0_33_1_27 <= 1
 0 <= y_0_35_1_29 <= 1
 0 <= y_0_37_1_31 <= 1
 0 <= y_0_39_1_33 <= 1
 0 <= y_0_1_2_13 <= 1
 0 <= y_0_3_2_11 <= 1
 0 <= y_0_5_2_9 <= 1
 0 <= y_0_7_2_7 <= 1
 0 <= y_0_9_2_5 <= 1
 0 <= y_0_11_2_3 <= 1
 0 <= y_0_13_2_1 <= 1
 0 <= y_0_1_3_1 <= 1
 0 <= y_0_3_3_3 <= 1
 0 <= y_0_5_3_5 <= 1
 0 <= y_0_7_3_7 <= 1
 0 <= y_0_9_3_9 <= 1
 0 <= y_0_11_3_11 <= 1
 0 <= y_0_13_3_13 <= 1
 0 <= y_0_15_3_15 <= 1
 0 <= y_0_17_3_17 <= 1
 0 <= y_0_19_3_19 <= 1
 0 <= y_0_21_3_21 <= 1
 0 <= y_0_23_3_23 <= 1
 0 <= y_0_25_3_25 <= 1
 0 <= y_0_27_3_27 <= 1
 0 <= y_0_29_3_29 <= 1
 0 <= y_0_31_3_31 <= 1
 0 <= y_0_33_3_33 <= 1
 0 <= y_0_35_3_35 <= 1
 0 <= y_0_37_3_37 <= 1
 0 <= y_0_39_3_39 <= 1
 0 <= y_0_1_4_39 <= 1
 0 <= y_0_3_4_37 <= 1
 0 <= y_0_5_4_35 <= 1
 0 <= y_0_7_4_33 <= 1
 0 <= y_0_9_4_31 <= 1
 0 <= y_0_11_4_29 <= 1
 0 <= y_0_13_4_27 <= 1
 0 <= y_0_15_4_25 <= 1
 0 <= y_0_17_4_23 <= 1
 0 <= y_0_19_4_21 <= 1
 0 <= y_0_21_4_19 <= 1
 0 <= y_0_23_4_17 <= 1
 0 <= y_0_25_4_15 <= 1
 0 <= y_0_27_4_13 <= 1
 0 <= y_0_29_4_11 <= 1
 0 <= y_0_31_4_9 <= 1
 0 <= y_0_33_4_7 <= 1
 0 <= y_0_35_4_5 <= 1
 0 <= y_0_37_4_3 <= 1
 0 <= y_0_39_4_1 <= 1
 0 <= y_1_1_2_7 <= 1
 0 <= y_1_3_2_5 <= 1
 0 <= y_1_5_2_3 <= 1
 0 <= y_1_7_2_1 <= 1
 0 <= y_1_1_3_7 <= 1
 0 <= y_1_3_3_9 <= 1
 0 <= y_1_5_3_11 <= 1
 0 <= y_1_7_3_13 <= 1
 0 <= y_1_9_3_15 <= 1
 0 <= y_1_11_3_17 <= 1
 0 <= y_1_13_3_19 <= 1
 0 <= y_1_15_3_21 <= 1
 0 <= y_1_17_3_23 <= 1
 0 <= y_1_19_3_25 <= 1
 0 <= y_1_21_3_27 <= 1
 0 <= y_1_23_3_29 <= 1
 0 <= y_1_25_3_31 <= 1
 0 <= y_1_27_3_33 <= 1
 0 <= y_1_29_3_35 <= 1
 0 <= y_1_31_3_37 <= 1
 0 <= y_1_33_3_39 <= 1
 0 <= y_1_1_4_33 <= 1
 0 <= y_1_3_4_31 <= 1
 0 <= y_1_5_4_29 <= 1
 0 <= y_1_7_4_27 <= 1
 0 <= y_1_9_4_25 <= 1
 0 <= y_1_11_4_23 <= 1
 0 <= y_1_13_4_21 <= 1
 0 <= y_1_15_4_19 <= 1
 0 <= y_1_17_4_17 <= 1
 0 <= y_1_19_4_15 <= 1
 0 <= y_1_21_4_13 <= 1
 0 <= y_1_23_4_11 <= 1
 0 <= y_1_25_4_9 <= 1
 0 <= y_1_27_4_7 <= 1
 0 <= y_1_29_4_5 <= 1
 0 <= y_1_31_4_3 <= 1
 0 <= y_1_33_4_1 <= 1
 0 <= y_2_1_3_13 <= 1
 0 <= y_2_3_3_11 <= 1
 0 <= y_2_5_3_9 <= 1
 0 <= y_2_7_3_7 <= 1
 0 <= y_2_9_3_5 <= 1
 0 <= y_2_11_3_3 <= 1
 0 <= y_2_13_3_1 <= 1
 0 <= y_2_1_4_27 <= 1
 0 <= y_2_3_4_29 <= 1
 0 <= y_2_5_4_31 <= 1
 0 <= y_2_7_4_33 <= 1
 0 <= y_2_9_4_35 <= 1
 0 <= y_2_11_4_37 <= 1
 0 <= y_2_13_4_39 <= 1
 0 <= y_3_1_4_39 <= 1
 0 <= y_3_3_4_37 <= 1
 0 <= y_3_5_4_35 <= 1
 0 <= y_3_7_4_33 <= 1
 0 <= y_3_9_4_31 <= 1
 0 <= y_3_11_4_29 <= 1
 0 <= y_3_13_4_27 <= 1
 0 <= y_3_15_4_25 <= 1
 0 <= y_3_17_4_23 <= 1
 0 <= y_3_19_4_21 <= 1
 0 <= y_3_21_4_19 <= 1
 0 <= y_3_23_4_17 <= 1
 0 <= y_3_25_4_15 <= 1
 0 <= y_3_27_4_13 <= 1
 0 <= y_3_29_4_11 <= 1
 0 <= y_3_31_4_9 <= 1
 0 <= y_3_33_4_7 <= 1
 0 <= y_3_35_4_5 <= 1
 0 <= y_3_37_4_3 <= 1
 0 <= y_3_39_4_1 <= 1
 0 <= thr_0_49_0 <= 1
 0 <= thr_0_49_180 <= 1
 0 <= thr_0_49_360 <= 1
 0 <= thr_1_33_0 <= 1
 0 <= thr_1_33_180 <= 1
 0 <= thr_1_33_360 <= 1
 0 <= thr_2_13_0 <= 1
 0 <= thr_2_13_180 <= 1
 0 <= thr_2_13_360 <= 1
 0 <= thr_3_39_0 <= 1
 0 <= thr_3_39_180 <= 1
 0 <= thr_3_39_360 <= 1
 0 <= thr_4_39_0 <= 1
 0 <= thr_4_39_180 <= 1
 0 <= thr_4_39_360 <= 1

Binaries
 y_0_7_1_1 y_0_9_1_3 y_0_11_1_5 y_0_13_1_7 y_0_15_1_9 y_0_17_1_11 y_0_19_1_13
 y_0_21_1_15 y_0_23_1_17 y_0_25_1_19 y_0_27_1_21 y_0_29_1_23 y_0_31_1_25
 y_0_33_1_27 y_0_35_1_29 y_0_37_1_31 y_0_39_1_33 y_0_1_2_13 y_0_3_2_11 y_0_5_2_9
 y_0_7_2_7 y_0_9_2_5 y_0_11_2_3 y_0_13_2_1 y_0_1_3_1 y_0_3_3_3 y_0_5_3_5
 y_0_7_3_7 y_0_9_3_9 y_0_11_3_11 y_0_13_3_13 y_0_15_3_15 y_0_17_3_17 y_0_19_3_19
 y_0_21_3_21 y_0_23_3_23 y_0_25_3_25 y_0_27_3_27 y_0_29_3_29 y_0_31_3_31
 y_0_33_3_33 y_0_35_3_35 y_0_37_3_37 y_0_39_3_39 y_0_1_4_39 y_0_3_4_37
 y_0_5_4_35 y_0_7_4_33 y_0_9_4_31 y_0_11_4_29 y_0_13_4_27 y_0_15_4_25
 y_0_17_4_23 y_0_19_4_21 y_0_21_4_19 y_0_23_4_17 y_0_25_4_15 y_0_27_4_13
 y_0_29_4_11 y_0_31_4_9 y_0_33_4_7 y_0_35_4_5 y_0_37_4_3 y_0_39_4_1 y_1_1_2_7
 y_1_3_2_5 y_1_5_2_3 y_1_7_2_1 y_1_1_3_7 y_1_3_3_9 y_1_5_3_11 y_1_7_3_13
 y_1_9_3_15 y_1_11_3_17 y_1_13_3_19 y_1_15_3_21 y_1_17_3_23 y_1_19_3_25
 y_1_21_3_27 y_1_23_3_29 y_1_25_3_31 y_1_27_3_33 y_1_29_3_35 y_1_31_3_37
 y_1_33_3_39 y_1_1_4_33 y_1_3_4_31 y_1_5_4_29 y_1_7_4_27 y_1_9_4_25 y_1_11_4_23
 y_1_13_4_21 y_1_15_4_19 y_1_17_4_17 y_1_19_4_15 y_1_21_4_13 y_1_23_4_11
 y_1_25_4_9 y_1_27_4_7 y_1_29_4_5 y_1_31_4_3 y_1_33_4_1 y_2_1_3_13 y_2_3_3_11
 y_2_5_3_9 y_2_7_3_7 y_2_9_3_5 y_2_11_3_3 y_2_13_3_1 y_2_1_4_27 y_2_3_4_29
 y_2_5_4_31 y_2_7_4_33 y_2_9_4_35 y_2_11_4_37 y_2_13_4_39 y_3_1_4_39 y_3_3_4_37
 y_3_5_4_35 y_3_7_4_33 y_3_9_4_31 y_3_11_4_29 y_3_13_4_27 y_3_15_4_25
 y_3_17_4_23 y_3_19_4_21 y_3_21_4_19 y_3_23_4_17 y_3_25_4_15 y_3_27_4_13
 y_3_29_4_11 y_3_31_4_9 y_3_33_4_7 y_3_35_4_5 y_3_37_4_3 y_3_39_4_1 thr_0_49_0
 thr_0_49_180 thr_0_49_360 thr_1_33_0 thr_1_33_180 thr_1_33_360 thr_2_13_0
 thr_2_13_180 thr_2_13_360 thr_3_39_0 thr_3_39_180 thr_3_39_360 thr_4_39_0
 thr_4_39_180 thr_4_39_360
End
